\ Model subProblem
\ LP format - for model browsing. Use MPS format to capture full model detail.
Minimize
  0 x_0_0_0 + 0 x_0_1_0 + 0 x_0_2_0 + 0 x_0_3_0 + 0 x_0_4_0 + 0 x_0_5_0
   - Constant
Subject To
 FlowConservation_1_0: - x_1_0_6 - x_1_2_6 - x_1_3_6 - x_1_4_6 - x_1_5_6
   + x_0_1_0 = 0
 FlowConservation_1_1: x_0_1_1 - x_1_0_7 - x_1_2_7 - x_1_3_7 - x_1_4_7
   - x_1_5_7 = 0
 FlowConservation_1_2: x_0_1_2 - x_1_0_8 - x_1_2_8 - x_1_3_8 - x_1_4_8
   - x_1_5_8 = 0
 FlowConservation_1_3: x_0_1_3 - x_1_0_9 - x_1_2_9 - x_1_3_9 - x_1_4_9
   - x_1_5_9 + x_3_1_3 = 0
 FlowConservation_1_4: x_0_1_4 - x_1_0_10 - x_1_2_10 - x_1_3_10 - x_1_4_10
   - x_1_5_10 + x_2_1_4 + x_3_1_4 = 0
 FlowConservation_1_5: x_0_1_5 - x_1_0_11 - x_1_2_11 - x_1_3_11 - x_1_4_11
   - x_1_5_11 + x_2_1_5 + x_3_1_5 + x_5_1_5 = 0
 FlowConservation_1_6: x_0_1_6 - x_1_0_12 - x_1_2_12 - x_1_3_12 - x_1_5_12
   + x_2_1_6 + x_3_1_6 + x_4_1_6 + x_5_1_6 = 0
 FlowConservation_1_7: x_0_1_7 - x_1_0_13 - x_1_2_13 - x_1_3_13 + x_2_1_7
   + x_3_1_7 + x_4_1_7 + x_5_1_7 = 0
 FlowConservation_1_8: x_0_1_8 - x_1_0_14 - x_1_3_14 + x_2_1_8 + x_3_1_8
   + x_4_1_8 + x_5_1_8 = 0
 FlowConservation_1_9: x_0_1_9 - x_1_0_15 + x_2_1_9 + x_3_1_9 + x_4_1_9
   + x_5_1_9 = 0
 FlowConservation_1_10: x_0_1_10 - x_1_0_16 + x_2_1_10 + x_3_1_10
   + x_4_1_10 + x_5_1_10 = 0
 FlowConservation_1_11: x_0_1_11 - x_1_0_17 + x_2_1_11 + x_3_1_11
   + x_4_1_11 + x_5_1_11 = 0
 FlowConservation_2_0: - x_2_0_4 - x_2_1_4 - x_2_3_4 - x_2_4_4 - x_2_5_4
   + x_0_2_0 = 0
 FlowConservation_2_1: x_0_2_1 - x_2_0_5 - x_2_1_5 - x_2_3_5 - x_2_4_5
   - x_2_5_5 = 0
 FlowConservation_2_2: x_0_2_2 - x_2_0_6 - x_2_1_6 - x_2_3_6 - x_2_4_6
   - x_2_5_6 = 0
 FlowConservation_2_3: x_0_2_3 - x_2_0_7 - x_2_1_7 - x_2_3_7 - x_2_4_7
   - x_2_5_7 + x_3_2_3 = 0
 FlowConservation_2_4: x_0_2_4 - x_2_0_8 - x_2_1_8 - x_2_3_8 - x_2_4_8
   - x_2_5_8 + x_3_2_4 = 0
 FlowConservation_2_5: x_0_2_5 - x_2_0_9 - x_2_1_9 - x_2_3_9 - x_2_4_9
   - x_2_5_9 + x_3_2_5 + x_5_2_5 = 0
 FlowConservation_2_6: x_0_2_6 + x_1_2_6 - x_2_0_10 - x_2_1_10 - x_2_3_10
   - x_2_4_10 - x_2_5_10 + x_3_2_6 + x_4_2_6 + x_5_2_6 = 0
 FlowConservation_2_7: x_0_2_7 + x_1_2_7 - x_2_0_11 - x_2_1_11 - x_2_3_11
   - x_2_4_11 - x_2_5_11 + x_3_2_7 + x_4_2_7 + x_5_2_7 = 0
 FlowConservation_2_8: x_0_2_8 + x_1_2_8 - x_2_0_12 - x_2_3_12 - x_2_5_12
   + x_3_2_8 + x_4_2_8 + x_5_2_8 = 0
 FlowConservation_2_9: x_0_2_9 + x_1_2_9 - x_2_0_13 - x_2_3_13 + x_3_2_9
   + x_4_2_9 + x_5_2_9 = 0
 FlowConservation_2_10: x_0_2_10 + x_1_2_10 - x_2_0_14 - x_2_3_14
   + x_3_2_10 + x_4_2_10 + x_5_2_10 = 0
 FlowConservation_2_11: x_0_2_11 + x_1_2_11 - x_2_0_15 + x_3_2_11
   + x_4_2_11 + x_5_2_11 = 0
 FlowConservation_2_12: x_0_2_12 + x_1_2_12 - x_2_0_16 + x_3_2_12
   + x_4_2_12 + x_5_2_12 = 0
 FlowConservation_2_13: x_0_2_13 + x_1_2_13 - x_2_0_17 + x_3_2_13
   + x_4_2_13 + x_5_2_13 = 0
 FlowConservation_3_0: - x_3_0_3 - x_3_1_3 - x_3_2_3 - x_3_4_3 - x_3_5_3
   + x_0_3_0 = 0
 FlowConservation_3_1: x_0_3_1 - x_3_0_4 - x_3_1_4 - x_3_2_4 - x_3_4_4
   - x_3_5_4 = 0
 FlowConservation_3_2: x_0_3_2 - x_3_0_5 - x_3_1_5 - x_3_2_5 - x_3_4_5
   - x_3_5_5 = 0
 FlowConservation_3_3: x_0_3_3 - x_3_0_6 - x_3_1_6 - x_3_2_6 - x_3_4_6
   - x_3_5_6 = 0
 FlowConservation_3_4: x_0_3_4 + x_2_3_4 - x_3_0_7 - x_3_1_7 - x_3_2_7
   - x_3_4_7 - x_3_5_7 = 0
 FlowConservation_3_5: x_0_3_5 + x_2_3_5 - x_3_0_8 - x_3_1_8 - x_3_2_8
   - x_3_4_8 - x_3_5_8 + x_5_3_5 = 0
 FlowConservation_3_6: x_0_3_6 + x_1_3_6 + x_2_3_6 - x_3_0_9 - x_3_1_9
   - x_3_2_9 - x_3_4_9 - x_3_5_9 + x_4_3_6 + x_5_3_6 = 0
 FlowConservation_3_7: x_0_3_7 + x_1_3_7 + x_2_3_7 - x_3_0_10 - x_3_1_10
   - x_3_2_10 - x_3_4_10 - x_3_5_10 + x_4_3_7 + x_5_3_7 = 0
 FlowConservation_3_8: x_0_3_8 + x_1_3_8 + x_2_3_8 - x_3_0_11 - x_3_1_11
   - x_3_2_11 - x_3_4_11 - x_3_5_11 + x_4_3_8 + x_5_3_8 = 0
 FlowConservation_3_9: x_0_3_9 + x_1_3_9 + x_2_3_9 - x_3_0_12 - x_3_2_12
   - x_3_5_12 + x_4_3_9 + x_5_3_9 = 0
 FlowConservation_3_10: x_0_3_10 + x_1_3_10 + x_2_3_10 - x_3_0_13
   - x_3_2_13 + x_4_3_10 + x_5_3_10 = 0
 FlowConservation_3_11: x_0_3_11 + x_1_3_11 + x_2_3_11 - x_3_0_14
   + x_4_3_11 + x_5_3_11 = 0
 FlowConservation_3_12: x_0_3_12 + x_1_3_12 + x_2_3_12 - x_3_0_15
   + x_4_3_12 + x_5_3_12 = 0
 FlowConservation_3_13: x_0_3_13 + x_1_3_13 + x_2_3_13 - x_3_0_16
   + x_4_3_13 + x_5_3_13 = 0
 FlowConservation_3_14: x_0_3_14 + x_1_3_14 + x_2_3_14 - x_3_0_17
   + x_4_3_14 + x_5_3_14 = 0
 FlowConservation_4_0: - x_4_0_6 - x_4_1_6 - x_4_2_6 - x_4_3_6 - x_4_5_6
   + x_0_4_0 = 0
 FlowConservation_4_1: x_0_4_1 - x_4_0_7 - x_4_1_7 - x_4_2_7 - x_4_3_7
   - x_4_5_7 = 0
 FlowConservation_4_2: x_0_4_2 - x_4_0_8 - x_4_1_8 - x_4_2_8 - x_4_3_8
   - x_4_5_8 = 0
 FlowConservation_4_3: x_0_4_3 + x_3_4_3 - x_4_0_9 - x_4_1_9 - x_4_2_9
   - x_4_3_9 - x_4_5_9 = 0
 FlowConservation_4_4: x_0_4_4 + x_2_4_4 + x_3_4_4 - x_4_0_10 - x_4_1_10
   - x_4_2_10 - x_4_3_10 - x_4_5_10 = 0
 FlowConservation_4_5: x_0_4_5 + x_2_4_5 + x_3_4_5 - x_4_0_11 - x_4_1_11
   - x_4_2_11 - x_4_3_11 - x_4_5_11 + x_5_4_5 = 0
 FlowConservation_4_6: x_0_4_6 + x_1_4_6 + x_2_4_6 + x_3_4_6 - x_4_0_12
   - x_4_2_12 - x_4_3_12 - x_4_5_12 + x_5_4_6 = 0
 FlowConservation_4_7: x_0_4_7 + x_1_4_7 + x_2_4_7 + x_3_4_7 - x_4_0_13
   - x_4_2_13 - x_4_3_13 + x_5_4_7 = 0
 FlowConservation_4_8: x_0_4_8 + x_1_4_8 + x_2_4_8 + x_3_4_8 - x_4_0_14
   - x_4_3_14 + x_5_4_8 = 0
 FlowConservation_4_9: x_0_4_9 + x_1_4_9 + x_2_4_9 + x_3_4_9 - x_4_0_15
   + x_5_4_9 = 0
 FlowConservation_4_10: x_0_4_10 + x_1_4_10 + x_2_4_10 + x_3_4_10
   - x_4_0_16 + x_5_4_10 = 0
 FlowConservation_4_11: x_0_4_11 + x_1_4_11 + x_2_4_11 + x_3_4_11
   - x_4_0_17 + x_5_4_11 = 0
 FlowConservation_5_0: - x_5_0_5 - x_5_1_5 - x_5_2_5 - x_5_3_5 - x_5_4_5
   + x_0_5_0 = 0
 FlowConservation_5_1: x_0_5_1 - x_5_0_6 - x_5_1_6 - x_5_2_6 - x_5_3_6
   - x_5_4_6 = 0
 FlowConservation_5_2: x_0_5_2 - x_5_0_7 - x_5_1_7 - x_5_2_7 - x_5_3_7
   - x_5_4_7 = 0
 FlowConservation_5_3: x_0_5_3 + x_3_5_3 - x_5_0_8 - x_5_1_8 - x_5_2_8
   - x_5_3_8 - x_5_4_8 = 0
 FlowConservation_5_4: x_0_5_4 + x_2_5_4 + x_3_5_4 - x_5_0_9 - x_5_1_9
   - x_5_2_9 - x_5_3_9 - x_5_4_9 = 0
 FlowConservation_5_5: x_0_5_5 + x_2_5_5 + x_3_5_5 - x_5_0_10 - x_5_1_10
   - x_5_2_10 - x_5_3_10 - x_5_4_10 = 0
 FlowConservation_5_6: x_0_5_6 + x_1_5_6 + x_2_5_6 + x_3_5_6 + x_4_5_6
   - x_5_0_11 - x_5_1_11 - x_5_2_11 - x_5_3_11 - x_5_4_11 = 0
 FlowConservation_5_7: x_0_5_7 + x_1_5_7 + x_2_5_7 + x_3_5_7 + x_4_5_7
   - x_5_0_12 - x_5_2_12 - x_5_3_12 = 0
 FlowConservation_5_8: x_0_5_8 + x_1_5_8 + x_2_5_8 + x_3_5_8 + x_4_5_8
   - x_5_0_13 - x_5_2_13 - x_5_3_13 = 0
 FlowConservation_5_9: x_0_5_9 + x_1_5_9 + x_2_5_9 + x_3_5_9 + x_4_5_9
   - x_5_0_14 - x_5_3_14 = 0
 FlowConservation_5_10: x_0_5_10 + x_1_5_10 + x_2_5_10 + x_3_5_10
   + x_4_5_10 - x_5_0_15 = 0
 FlowConservation_5_11: x_0_5_11 + x_1_5_11 + x_2_5_11 + x_3_5_11
   + x_4_5_11 - x_5_0_16 = 0
 FlowConservation_5_12: x_0_5_12 + x_1_5_12 + x_2_5_12 + x_3_5_12
   + x_4_5_12 - x_5_0_17 = 0
 Idleness_0: - x_0_0_1 - x_0_1_1 - x_0_2_1 - x_0_3_1 - x_0_4_1 - x_0_5_1
   + x_0_0_0 = 0
 Idleness_1: x_0_0_1 - x_0_0_2 - x_0_1_2 - x_0_2_2 - x_0_3_2 - x_0_4_2
   - x_0_5_2 = 0
 Idleness_2: x_0_0_2 - x_0_0_3 - x_0_1_3 - x_0_2_3 - x_0_3_3 - x_0_4_3
   - x_0_5_3 = 0
 Idleness_3: x_0_0_3 - x_0_0_4 - x_0_1_4 - x_0_2_4 - x_0_3_4 - x_0_4_4
   - x_0_5_4 + x_3_0_3 = 0
 Idleness_4: x_0_0_4 - x_0_0_5 - x_0_1_5 - x_0_2_5 - x_0_3_5 - x_0_4_5
   - x_0_5_5 + x_2_0_4 + x_3_0_4 = 0
 Idleness_5: x_0_0_5 - x_0_0_6 - x_0_1_6 - x_0_2_6 - x_0_3_6 - x_0_4_6
   - x_0_5_6 + x_2_0_5 + x_3_0_5 + x_5_0_5 = 0
 Idleness_6: x_0_0_6 - x_0_0_7 - x_0_1_7 - x_0_2_7 - x_0_3_7 - x_0_4_7
   - x_0_5_7 + x_1_0_6 + x_2_0_6 + x_3_0_6 + x_4_0_6 + x_5_0_6 = 0
 Idleness_7: x_0_0_7 - x_0_0_8 - x_0_1_8 - x_0_2_8 - x_0_3_8 - x_0_4_8
   - x_0_5_8 + x_1_0_7 + x_2_0_7 + x_3_0_7 + x_4_0_7 + x_5_0_7 = 0
 Idleness_8: x_0_0_8 - x_0_0_9 - x_0_1_9 - x_0_2_9 - x_0_3_9 - x_0_4_9
   - x_0_5_9 + x_1_0_8 + x_2_0_8 + x_3_0_8 + x_4_0_8 + x_5_0_8 = 0
 Idleness_9: x_0_0_9 - x_0_0_10 - x_0_1_10 - x_0_2_10 - x_0_3_10 - x_0_4_10
   - x_0_5_10 + x_1_0_9 + x_2_0_9 + x_3_0_9 + x_4_0_9 + x_5_0_9 = 0
 Idleness_10: x_0_0_10 - x_0_0_11 - x_0_1_11 - x_0_2_11 - x_0_3_11
   - x_0_4_11 - x_0_5_11 + x_1_0_10 + x_2_0_10 + x_3_0_10 + x_4_0_10
   + x_5_0_10 = 0
 Idleness_11: x_0_0_11 - x_0_0_12 - x_0_2_12 - x_0_3_12 - x_0_5_12
   + x_1_0_11 + x_2_0_11 + x_3_0_11 + x_4_0_11 + x_5_0_11 = 0
 Idleness_12: x_0_0_12 - x_0_0_13 - x_0_2_13 - x_0_3_13 + x_1_0_12
   + x_2_0_12 + x_3_0_12 + x_4_0_12 + x_5_0_12 = 0
 Idleness_13: x_0_0_13 - x_0_0_14 - x_0_3_14 + x_1_0_13 + x_2_0_13
   + x_3_0_13 + x_4_0_13 + x_5_0_13 = 0
 Idleness_14: x_0_0_14 - x_0_0_15 + x_1_0_14 + x_2_0_14 + x_3_0_14
   + x_4_0_14 + x_5_0_14 = 0
 Idleness_15: x_0_0_15 - x_0_0_16 + x_1_0_15 + x_2_0_15 + x_3_0_15
   + x_4_0_15 + x_5_0_15 = 0
 Idleness_16: x_0_0_16 - x_0_0_17 + x_1_0_16 + x_2_0_16 + x_3_0_16
   + x_4_0_16 + x_5_0_16 = 0
Bounds
 Constant = 1
End
